row=7;
column=7;
left=[2, 0, 2, 1, 0, 0, 0];
right=[0, 0, 0, 0, 0, 0, 0];
top=[0, 1, 3, 0, 0, 0, 0];
bottom=[3, 3, 0, 3, 0, 0, 0];
Board=[|1,0,0,0,0,2,0|0,2,0,3,0,7,0|0,3,1,2,0,0,0|7,0,0,0,4,3,1|4,0,0,7,0,0,0|0,1,0,0,0,5,0|3,4,0,0,0,0,5|]